This is Ipopt version 3.14.16, running with linear solver MUMPS 5.7.3.

Number of nonzeros in equality constraint Jacobian...:        0
Number of nonzeros in inequality constraint Jacobian.:      306
Number of nonzeros in Lagrangian Hessian.............:        0

Total number of variables............................:       17
                     variables with only lower bounds:        0
                variables with lower and upper bounds:       17
                     variables with only upper bounds:        0
Total number of equality constraints.................:        0
Total number of inequality constraints...............:       18
        inequality constraints with only lower bounds:        0
   inequality constraints with lower and upper bounds:        0
        inequality constraints with only upper bounds:       18

iter    objective    inf_pr   inf_du lg(mu)  ||d||  lg(rg) alpha_du alpha_pr  ls
   0  4.4352364e-02 3.93e+00 5.88e-01   0.0 0.00e+00    -  0.00e+00 0.00e+00   0
   1  1.1113107e-01 1.00e+00 3.23e+00  -1.0 1.46e+00    -  4.15e-01 8.35e-01f  1
   2  1.3260445e-01 2.95e-01 1.85e+00  -1.1 5.12e-01    -  1.00e+00 7.11e-01f  1
   3  1.4309036e-01 0.00e+00 2.68e-02  -1.9 1.80e-01    -  9.99e-01 1.00e+00h  1
   4  1.4302007e-01 0.00e+00 5.12e-03  -3.5 6.84e-02    -  9.96e-01 1.00e+00h  1
   5  1.4132274e-01 2.12e-02 1.11e-03  -4.0 4.06e-01    -  9.98e-01 1.00e+00h  1
   6  1.4181392e-01 2.48e-03 6.01e-04  -4.7 1.28e-01    -  9.23e-01 1.00e+00h  1
   7  1.4184318e-01 2.13e-04 1.33e-04  -5.6 7.56e-02    -  1.00e+00 1.00e+00h  1
   8  1.4180491e-01 8.42e-04 4.75e-05  -6.5 7.85e-02    -  1.00e+00 1.00e+00h  1
   9  1.4183203e-01 3.53e-05 9.28e-05  -6.8 3.66e-02    -  1.00e+00 1.00e+00h  1

Number of Iterations....: 9

                                   (scaled)                 (unscaled)
Objective...............:   1.4183203348082429e-01    1.4183203348082429e-01
Dual infeasibility......:   9.2773921752179765e-05    9.2773921752179765e-05
Constraint violation....:   3.5318854560034982e-05    3.5318854560034982e-05
Variable bound violation:   0.0000000000000000e+00    0.0000000000000000e+00
Complementarity.........:   6.2881826314045372e-07    6.2881826314045372e-07
Overall NLP error.......:   9.2773921752179765e-05    9.2773921752179765e-05


Number of objective function evaluations             = 10
Number of objective gradient evaluations             = 10
Number of equality constraint evaluations            = 0
Number of inequality constraint evaluations          = 10
Number of equality constraint Jacobian evaluations   = 0
Number of inequality constraint Jacobian evaluations = 10
Number of Lagrangian Hessian evaluations             = 0
Total seconds in IPOPT                               = 2.686

EXIT: Optimal Solution Found.
